c SAT Generator for power-law distributed variable frequencies
c -g u -v 20 -c 91 -k 3 -p 2.750000 -b 3.200000 -f /home/schmidt/Devel/ni-kop-sat/data/ensemble/ruf20-91/ruf20-91-954 -u 1 -U 1 -s 1113558088
p cnf 20 91
-2 -5 -10 0
-7 11 12 0
2 -10 -11 0
-9 13 19 0
6 13 16 0
-11 18 19 0
3 -8 17 0
-6 9 -20 0
1 2 -16 0
-3 -11 -18 0
3 9 14 0
8 18 -19 0
8 -9 17 0
1 -2 -8 0
-8 9 -20 0
9 -12 -14 0
-18 19 20 0
9 -11 -18 0
8 12 -18 0
-9 -13 -18 0
-5 7 16 0
-3 -4 12 0
-10 -16 19 0
1 -2 20 0
7 15 20 0
-5 -12 20 0
14 15 -18 0
-3 12 19 0
-3 -5 12 0
-2 -3 20 0
-6 15 17 0
-3 -8 -9 0
-2 9 16 0
16 19 -20 0
-2 5 13 0
3 6 11 0
1 -5 -17 0
-1 14 18 0
7 11 -18 0
7 8 15 0
1 4 -15 0
6 11 -17 0
-2 -7 -18 0
6 12 15 0
2 -7 20 0
-9 -12 17 0
8 -12 17 0
-7 -12 16 0
-12 17 19 0
6 7 18 0
8 15 -20 0
1 -11 12 0
-10 -17 18 0
1 5 -13 0
-9 -14 20 0
4 -10 -14 0
1 -14 -16 0
9 12 19 0
-4 19 20 0
3 -5 13 0
-1 8 -16 0
2 -10 19 0
8 13 14 0
-5 9 -16 0
1 11 20 0
-9 12 -16 0
15 -18 19 0
-11 13 17 0
9 10 13 0
1 19 20 0
-1 -9 20 0
-6 -11 -15 0
7 -9 10 0
-3 -8 12 0
-6 11 -19 0
-3 14 20 0
-6 -10 -13 0
-7 15 -20 0
-2 -5 13 0
4 -10 -13 0
1 -5 -14 0
-3 7 13 0
-4 12 -17 0
-3 -6 20 0
-10 19 -20 0
-2 -7 -9 0
6 -15 20 0
-14 17 18 0
1 11 -12 0
6 15 17 0
-4 -10 -16 0
